1238733
22,15,53,17,80,48,21,100,54,102,58,104,97,105,13,93,96,87,62,19,73,42,60,33,78,108,106,55,68,40,8,36,28,12,65,88,7,18,50,76,99,71,47,89,91,11,49,31,39,14,70,69,27,86,75,57,72,38,41,26,37,9,77,66,10,109,24,90,45,82,101,98,35,5,1,34,52,29,16,107,94,46,81,2,59,51,84,25,83,3,63,20,44,43,85,61,32,95,6,30,103,56,92,74,4,67,79,23,64,22